c A SAT instance generated from a 3-CNF formula that had 10 clauses and 10 variables
p cnf 10 10
-4 3 10 0
-10 -8 -9 0
-6 -1 -5 0
9 -10 1 0
10 -6 -9 0
7 -9 1 0
-5 -7 -9 0
9 -8 -4 0
-3 -2 6 0
1 -5 -7 0
